100 10
624 468
48 355
117 261
604 254
425 625
302 410
667 106
531 196
628 418
372 424
761 602
753 350
710 461
635 489
600 581
712 548
688 409
565 151
145 428
138 290
684 296
414 347
414 325
255 477
431 695
275 303
526 628
778 485
923 174
776 591
552 398
270 469
495 775
372 556
493 216
923 479
518 280
471 422
535 345
724 556
289 492
360 448
537 276
523 513
630 254
486 322
681 114
637 389
266 329
509 191
298 623
396 393
544 447
374 417
756 384
671 131
537 327
593 293
660 677
825 523
779 85
405 358
393 416
327 730
538 533
328 641
265 431
613 170
678 375
269 78
547 354
516 648
98 289
416 431
347 393
718 220
609 656
870 746
730 732
967 363
686 305
568 520
434 338
406 320
506 104
676 263
525 144
718 299
841 570
871 179
134 648
474 269
417 110
752 280
627 259
641 445
926 119
364 33
355 311
411 229
